db/inputs/26132245509668880438041609468318212.smt2
(set-logic QF_FP)
(declare-const x0 (_ FloatingPoint 11 53))
(declare-const x1 (_ FloatingPoint 11 53))
(declare-const x2 (_ FloatingPoint 11 53))
(declare-const x3 (_ FloatingPoint 11 53))
(declare-const x4 (_ FloatingPoint 11 53))
(declare-const x5 (_ FloatingPoint 11 53))
(declare-const x6 (_ FloatingPoint 11 53))
(declare-const x7 (_ FloatingPoint 11 53))
(declare-const x8 (_ FloatingPoint 11 53))
(declare-const x9 (_ FloatingPoint 11 53))
(declare-const x10 (_ FloatingPoint 11 53))
(declare-const x11 (_ FloatingPoint 11 53))
(declare-const x12 (_ FloatingPoint 11 53))
(declare-const x13 (_ FloatingPoint 11 53))
(declare-const x14 (_ FloatingPoint 11 53))
(declare-const x15 (_ FloatingPoint 11 53))
(declare-const x16 (_ FloatingPoint 11 53))
(assert (fp.eq (fp.mul RNE (fp.add RNE (fp.sub RNE (fp.mul RNE x3 x12) (fp.sub RNE x4 x16)) (fp.neg (fp.neg x4))) (fp.sub RNE (fp.sub RNE (fp.add RNE x15 x7) (fp.neg x11)) (fp.div RNE (fp.add RNE x15 x14) (fp.add RNE x5 x15)))) (fp.div RNE (fp.mul RNE (fp.sub RNE (fp.div RNE x7 x13) (fp.mul RNE x9 x10)) (fp.mul RNE (fp.add RNE x8 x4) (fp.mul RNE x11 x4))) (fp.div RNE (fp.add RNE (fp.sub RNE x0 x5) (fp.sub RNE x11 x1)) (fp.neg (fp.neg x9))))))
(assert (fp.lt (fp.add RNE (fp.div RNE (fp.add RNE (fp.add RNE x8 x4) (fp.sub RNE x15 x4)) (fp.div RNE (fp.sub RNE x12 x8) (fp.add RNE x7 x5))) (fp.add RNE (fp.mul RNE (fp.add RNE x15 x6) (fp.add RNE x1 x0)) (fp.add RNE (fp.neg x10) (fp.sub RNE x9 x10)))) (fp.sub RNE (fp.sub RNE (fp.add RNE (fp.add RNE x5 x1) (fp.sub RNE x15 x9)) (fp.div RNE (fp.mul RNE x10 x1) (fp.div RNE x9 x9))) (fp.neg (fp.div RNE (fp.add RNE x6 x4) (fp.add RNE x0 x5))))))
(assert (fp.gt (fp.mul RNE (fp.add RNE (fp.div RNE (fp.div RNE x2 x11) (fp.neg x10)) (fp.sub RNE (fp.div RNE x4 x4) (fp.mul RNE x12 x5))) (fp.div RNE (fp.div RNE (fp.add RNE x2 x1) (fp.neg x11)) (fp.sub RNE (fp.add RNE x3 x3) (fp.sub RNE x16 x6)))) (fp.div RNE (fp.neg (fp.add RNE (fp.div RNE x5 x1) (fp.sub RNE x0 x0))) (fp.div RNE (fp.sub RNE (fp.mul RNE x6 x13) (fp.mul RNE x6 x5)) (fp.add RNE (fp.add RNE x2 x7) (fp.mul RNE x0 x16))))))
(assert (fp.eq (fp.neg (fp.div RNE (fp.neg (fp.add RNE x10 x16)) (fp.div RNE (fp.sub RNE x3 x8) (fp.neg x11)))) (fp.neg (fp.add RNE (fp.add RNE (fp.mul RNE x8 x6) (fp.neg x7)) (fp.div RNE (fp.sub RNE x9 x15) (fp.add RNE x8 x8))))))
(assert (fp.eq (fp.div RNE (fp.mul RNE (fp.mul RNE (fp.div RNE x10 x8) (fp.sub RNE x15 x0)) (fp.add RNE (fp.add RNE x6 x10) (fp.add RNE x3 x10))) (fp.mul RNE (fp.div RNE (fp.neg x4) (fp.add RNE x14 x12)) (fp.mul RNE (fp.mul RNE x0 x15) (fp.div RNE x11 x5)))) (fp.mul RNE (fp.sub RNE (fp.add RNE (fp.sub RNE x14 x10) (fp.div RNE x4 x14)) (fp.add RNE (fp.div RNE x7 x2) (fp.mul RNE x16 x15))) (fp.mul RNE (fp.sub RNE (fp.mul RNE x11 x6) (fp.mul RNE x10 x13)) (fp.add RNE (fp.neg x5) (fp.div RNE x12 x13))))))
(assert (fp.lt (fp.add RNE (fp.div RNE (fp.div RNE (fp.sub RNE x6 x6) (fp.mul RNE x0 x6)) (fp.mul RNE (fp.add RNE x3 x10) (fp.mul RNE x13 x14))) (fp.div RNE (fp.neg (fp.sub RNE x15 x8)) (fp.mul RNE (fp.neg x3) (fp.add RNE x0 x2)))) (fp.mul RNE (fp.add RNE (fp.mul RNE (fp.sub RNE x13 x15) (fp.add RNE x2 x6)) (fp.div RNE (fp.mul RNE x8 x12) (fp.div RNE x14 x3))) (fp.neg (fp.sub RNE (fp.div RNE x16 x12) (fp.mul RNE x14 x6))))))
(assert (fp.gt (fp.mul RNE (fp.mul RNE (fp.neg (fp.add RNE x10 x12)) (fp.neg (fp.add RNE x5 x9))) (fp.add RNE (fp.div RNE (fp.sub RNE x7 x9) (fp.add RNE x5 x2)) (fp.mul RNE (fp.div RNE x14 x7) (fp.div RNE x2 x15)))) (fp.div RNE (fp.neg (fp.neg (fp.mul RNE x3 x9))) (fp.div RNE (fp.sub RNE (fp.sub RNE x7 x16) (fp.add RNE x3 x9)) (fp.add RNE (fp.neg x7) (fp.mul RNE x1 x7))))))
(assert (fp.lt (fp.div RNE (fp.sub RNE (fp.neg (fp.sub RNE x7 x0)) (fp.mul RNE (fp.div RNE x9 x6) (fp.sub RNE x12 x10))) (fp.add RNE (fp.sub RNE (fp.add RNE x9 x6) (fp.mul RNE x1 x8)) (fp.add RNE (fp.add RNE x2 x14) (fp.add RNE x14 x11)))) (fp.div RNE (fp.div RNE (fp.neg (fp.neg x12)) (fp.mul RNE (fp.add RNE x10 x11) (fp.div RNE x2 x5))) (fp.add RNE (fp.neg (fp.div RNE x13 x16)) (fp.add RNE (fp.sub RNE x1 x0) (fp.neg x3))))))
(assert (fp.geq (fp.add RNE (fp.mul RNE (fp.neg (fp.mul RNE x9 x12)) (fp.sub RNE (fp.sub RNE x11 x1) (fp.add RNE x6 x3))) (fp.div RNE (fp.sub RNE (fp.mul RNE x11 x6) (fp.sub RNE x5 x6)) (fp.sub RNE (fp.div RNE x10 x12) (fp.mul RNE x1 x1)))) (fp.neg (fp.div RNE (fp.neg (fp.sub RNE x11 x1)) (fp.neg (fp.div RNE x12 x11))))))
(assert (fp.leq (fp.neg (fp.div RNE (fp.neg (fp.div RNE x1 x6)) (fp.sub RNE (fp.div RNE x4 x8) (fp.sub RNE x12 x6)))) (fp.neg (fp.sub RNE (fp.add RNE (fp.add RNE x1 x15) (fp.div RNE x16 x16)) (fp.neg (fp.mul RNE x13 x6))))))
(assert (fp.gt (fp.div RNE (fp.mul RNE (fp.div RNE (fp.neg x7) (fp.add RNE x6 x5)) (fp.mul RNE (fp.add RNE x9 x7) (fp.div RNE x9 x5))) (fp.mul RNE (fp.mul RNE (fp.sub RNE x7 x15) (fp.div RNE x11 x11)) (fp.add RNE (fp.sub RNE x7 x7) (fp.div RNE x8 x4)))) (fp.add RNE (fp.sub RNE (fp.mul RNE (fp.add RNE x7 x12) (fp.neg x0)) (fp.add RNE (fp.div RNE x11 x14) (fp.div RNE x4 x7))) (fp.neg (fp.neg (fp.div RNE x1 x15))))))
(assert (fp.leq (fp.add RNE (fp.sub RNE (fp.neg (fp.mul RNE x9 x3)) (fp.mul RNE (fp.div RNE x1 x3) (fp.add RNE x2 x3))) (fp.add RNE (fp.add RNE (fp.neg x0) (fp.neg x1)) (fp.sub RNE (fp.neg x16) (fp.mul RNE x15 x5)))) (fp.sub RNE (fp.add RNE (fp.mul RNE (fp.sub RNE x14 x0) (fp.add RNE x11 x0)) (fp.neg (fp.add RNE x8 x9))) (fp.mul RNE (fp.div RNE (fp.sub RNE x11 x11) (fp.sub RNE x14 x15)) (fp.add RNE (fp.neg x11) (fp.mul RNE x6 x2))))))
(check-sat)
