db/data/26132245509668880438041609468318212.z3.out
solvers/z3/run.sh: line 2: 74300 Killed                  z3 -smt2 $1
-------------------
79.043758433
